30 60
28
9 24 21 25
9 8 3 22
9 11 17 14
9 17 3 30
4 24 17 25
4 8 26 0
1 6 15 49
1 5 15 55
4 17 26 8
3 6 12 22
3 5 14 14
12 5 0 0
12 13 0 47
14 14 12 0
2 14 15 22
2 2 16 49
8 3 3 19
8 9 16 51
12 14 0 5
12 2 18 49
6 3 11 19
6 9 24 51
2 5 12 14
2 13 15 36
3 18 12 28
3 14 12 46
3 16 0 19
3 12 0 35
